c description: Perfect Matching Principle on 
c generator: CNFgen (0.9.0)
c copyright: (C) 2012-2020 Massimo Lauria <massimo.lauria@uniroma1.it>
c url: https://massimolauria.net/cnfgen
c
p cnf 80 370
-1 -2 0
-1 -3 0
-1 -4 0
-2 -3 0
-2 -4 0
-3 -4 0
1 2 3 4 0
-5 -6 0
-5 -7 0
-5 -8 0
-5 -9 0
-5 -10 0
-5 -11 0
-6 -7 0
-6 -8 0
-6 -9 0
-6 -10 0
-6 -11 0
-7 -8 0
-7 -9 0
-7 -10 0
-7 -11 0
-8 -9 0
-8 -10 0
-8 -11 0
-9 -10 0
-9 -11 0
-10 -11 0
5 6 7 8 9 10 11 0
-12 -13 0
-12 -14 0
-12 -15 0
-12 -16 0
-13 -14 0
-13 -15 0
-13 -16 0
-14 -15 0
-14 -16 0
-15 -16 0
12 13 14 15 16 0
-12 -17 0
-12 -18 0
-12 -19 0
-12 -20 0
-12 -21 0
-12 -22 0
-17 -18 0
-17 -19 0
-17 -20 0
-17 -21 0
-17 -22 0
-18 -19 0
-18 -20 0
-18 -21 0
-18 -22 0
-19 -20 0
-19 -21 0
-19 -22 0
-20 -21 0
-20 -22 0
-21 -22 0
12 17 18 19 20 21 22 0
-5 -13 0
-5 -23 0
-5 -24 0
-5 -25 0
-5 -26 0
-5 -27 0
-13 -23 0
-13 -24 0
-13 -25 0
-13 -26 0
-13 -27 0
-23 -24 0
-23 -25 0
-23 -26 0
-23 -27 0
-24 -25 0
-24 -26 0
-24 -27 0
-25 -26 0
-25 -27 0
-26 -27 0
5 13 23 24 25 26 27 0
-6 -28 0
-6 -29 0
-6 -30 0
-28 -29 0
-28 -30 0
-29 -30 0
6 28 29 30 0
-7 -31 0
-7 -32 0
-31 -32 0
7 31 32 0
-28 -33 0
-28 -34 0
-28 -35 0
-28 -36 0
-28 -37 0
-33 -34 0
-33 -35 0
-33 -36 0
-33 -37 0
-34 -35 0
-34 -36 0
-34 -37 0
-35 -36 0
-35 -37 0
-36 -37 0
28 33 34 35 36 37 0
-1 -29 0
-1 -38 0
-1 -39 0
-1 -40 0
-1 -41 0
-29 -38 0
-29 -39 0
-29 -40 0
-29 -41 0
-38 -39 0
-38 -40 0
-38 -41 0
-39 -40 0
-39 -41 0
-40 -41 0
1 29 38 39 40 41 0
-17 -23 0
-17 -38 0
-17 -42 0
-17 -43 0
-17 -44 0
-17 -45 0
-17 -46 0
-17 -47 0
-17 -48 0
-17 -49 0
-23 -38 0
-23 -42 0
-23 -43 0
-23 -44 0
-23 -45 0
-23 -46 0
-23 -47 0
-23 -48 0
-23 -49 0
-38 -42 0
-38 -43 0
-38 -44 0
-38 -45 0
-38 -46 0
-38 -47 0
-38 -48 0
-38 -49 0
-42 -43 0
-42 -44 0
-42 -45 0
-42 -46 0
-42 -47 0
-42 -48 0
-42 -49 0
-43 -44 0
-43 -45 0
-43 -46 0
-43 -47 0
-43 -48 0
-43 -49 0
-44 -45 0
-44 -46 0
-44 -47 0
-44 -48 0
-44 -49 0
-45 -46 0
-45 -47 0
-45 -48 0
-45 -49 0
-46 -47 0
-46 -48 0
-46 -49 0
-47 -48 0
-47 -49 0
-48 -49 0
17 23 38 42 43 44 45 46 47 48 49 0
-18 -42 0
-18 -50 0
-18 -51 0
-42 -50 0
-42 -51 0
-50 -51 0
18 42 50 51 0
-14 -52 0
-14 -53 0
-14 -54 0
-52 -53 0
-52 -54 0
-53 -54 0
14 52 53 54 0
-43 -50 0
-43 -55 0
-50 -55 0
43 50 55 0
-30 -55 0
-30 -56 0
-55 -56 0
30 55 56 0
-24 -51 0
-24 -57 0
-51 -57 0
24 51 57 0
-2 -44 0
-2 -58 0
-2 -59 0
-44 -58 0
-44 -59 0
-58 -59 0
2 44 58 59 0
-19 -60 0
19 60 0
-52 -61 0
52 61 0
-15 -20 0
-15 -33 0
-15 -53 0
-20 -33 0
-20 -53 0
-33 -53 0
15 20 33 53 0
62 0
-25 -34 0
-25 -39 0
-25 -63 0
-25 -64 0
-34 -39 0
-34 -63 0
-34 -64 0
-39 -63 0
-39 -64 0
-63 -64 0
25 34 39 63 64 0
-21 -65 0
-21 -66 0
-21 -67 0
-65 -66 0
-65 -67 0
-66 -67 0
21 65 66 67 0
31 0
-16 -22 0
-16 -62 0
-16 -68 0
-22 -62 0
-22 -68 0
-62 -68 0
16 22 62 68 0
-40 -61 0
-40 -63 0
-40 -69 0
-40 -70 0
-40 -71 0
-61 -63 0
-61 -69 0
-61 -70 0
-61 -71 0
-63 -69 0
-63 -70 0
-63 -71 0
-69 -70 0
-69 -71 0
-70 -71 0
40 61 63 69 70 71 0
-32 -45 0
-32 -58 0
-32 -64 0
-32 -72 0
-32 -73 0
-45 -58 0
-45 -64 0
-45 -72 0
-45 -73 0
-58 -64 0
-58 -72 0
-58 -73 0
-64 -72 0
-64 -73 0
-72 -73 0
32 45 58 64 72 73 0
-8 -26 0
8 26 0
-57 -60 0
-57 -74 0
-60 -74 0
57 60 74 0
0
-35 -46 0
-35 -65 0
-35 -75 0
-46 -65 0
-46 -75 0
-65 -75 0
35 46 65 75 0
-47 -76 0
47 76 0
-48 -66 0
48 66 0
-9 -41 0
-9 -56 0
-9 -76 0
-9 -77 0
-41 -56 0
-41 -76 0
-41 -77 0
-56 -76 0
-56 -77 0
-76 -77 0
9 41 56 76 77 0
-36 -77 0
-36 -78 0
-77 -78 0
36 77 78 0
-10 -67 0
-10 -75 0
-10 -78 0
-67 -75 0
-67 -78 0
-75 -78 0
10 67 75 78 0
-3 -37 0
-3 -69 0
-3 -72 0
-3 -74 0
-3 -79 0
-37 -69 0
-37 -72 0
-37 -74 0
-37 -79 0
-69 -72 0
-69 -74 0
-69 -79 0
-72 -74 0
-72 -79 0
-74 -79 0
3 37 69 72 74 79 0
-59 -68 0
-59 -70 0
-59 -80 0
-68 -70 0
-68 -80 0
-70 -80 0
59 68 70 80 0
0
-49 -54 0
-49 -71 0
-49 -73 0
-49 -79 0
-49 -80 0
-54 -71 0
-54 -73 0
-54 -79 0
-54 -80 0
-71 -73 0
-71 -79 0
-71 -80 0
-73 -79 0
-73 -80 0
-79 -80 0
49 54 71 73 79 80 0
-4 -11 0
-4 -27 0
-11 -27 0
4 11 27 0